(set-info :origin "SVCOMP13 benchmarks generated by Arie Gurfinkel")
(set-info :status unsat)
(set-logic HORN)
(declare-fun cp-rel-entry () Bool)
(declare-fun cp-rel-__UFO__0
             (Real
              Real
              Real
              Real
              Real
              Real
              Real
              Real
              Real
              Real
              Real
              Real
              Real
              Real
              Real
              Real
              Real
              Real
              Real
              Bool
              Real
              Bool
              Real
              Bool
              Real
              Real
              Real)
             Bool)
(declare-fun cp-rel-UnifiedReturnBlock () Bool)
(declare-fun cp-rel-bb.i
             (Real
              Real
              Real
              Real
              Real
              Real
              Real
              Real
              Real
              Real
              Real
              Real
              Real
              Real
              Real
              Real
              Real
              Real
              Real)
             Bool)
(assert |cp-rel-entry|)
(assert (forall ((?A Real) (?B Real) (?C Real) (?D Real) (?E Real) (?F Real) (?G Real) (?H Real) (?I Real) (?J Real) (?K Real) (?L Real) (?M Real) (?N Real) (?O Real) (?P Real) (?Q Real) (?R Real) (?S Real) (?T Bool) )(let (($x243570 (|cp-rel-bb.i| ?A ?B ?C ?D ?E ?F ?G ?H ?I ?J ?K ?L ?M ?N ?O ?P ?Q ?R ?S)))
(let (($x340192 (= ?T true)))
(let (($x363825 (and |cp-rel-entry| (<= ?S 0.0) (>= ?R 0.0) (<= ?R 0.0) (>= ?Q 0.0) (<= ?Q 0.0) (>= ?P 0.0) (<= ?P 0.0) (>= ?O 456.0) (<= ?O 456.0) (>= ?N 123.0) (<= ?N 123.0) (>= ?M 0.0) (<= ?M 0.0) (>= ?L 0.0) (<= ?L 0.0) (>= ?K 0.0) (<= ?K 0.0) (>= ?J 0.0) (<= ?J 0.0) (>= ?I 0.0) (<= ?I 0.0) (>= ?H 0.0) (<= ?H 0.0) (>= ?G 0.0) (<= ?G 0.0) (>= ?F 0.0) (<= ?F 0.0) (>= ?E 0.0) (<= ?E 0.0) (>= ?D 0.0) (<= ?D 0.0) (>= ?C 0.0) (<= ?C 0.0) (>= ?B 0.0) (<= ?B 0.0) (>= ?A 0.0) (<= ?A 0.0) $x340192 (>= ?S 0.0))))
(=> $x363825 $x243570)))))
)
(assert (forall ((?A Real) (?B Real) (?C Real) (?D Real) (?E Real) (?F Real) (?G Real) (?H Real) (?I Real) (?J Real) (?K Real) (?L Real) (?M Real) (?N Real) (?O Real) (?P Real) (?Q Real) (?R Real) (?S Real) (?T Real) (?U Real) (?V Real) (?W Real) (?X Real) (?Y Real) (?Z Real) (?A1 Real) (?B1 Real) (?C1 Real) (?D1 Real) (?E1 Real) (?F1 Real) (?G1 Real) (?H1 Real) (?I1 Real) (?J1 Real) (?K1 Real) (?L1 Real) (?M1 Bool) (?N1 Bool) (?O1 Bool) (?P1 Bool) (?Q1 Bool) (?R1 Bool) (?S1 Bool) (?T1 Bool) (?U1 Bool) (?V1 Bool) (?W1 Bool) (?X1 Bool) (?Y1 Bool) (?Z1 Bool) (?A2 Bool) (?B2 Bool) (?C2 Bool) (?D2 Bool) (?E2 Bool) (?F2 Bool) (?G2 Bool) (?H2 Bool) (?I2 Bool) (?J2 Bool) (?K2 Bool) (?L2 Bool) (?M2 Bool) (?N2 Bool) (?O2 Bool) (?P2 Bool) (?Q2 Bool) (?R2 Bool) (?S2 Bool) (?T2 Bool) (?U2 Bool) (?V2 Bool) (?W2 Bool) (?X2 Bool) (?Y2 Bool) (?Z2 Bool) (?A3 Bool) (?B3 Bool) (?C3 Bool) (?D3 Bool) (?E3 Bool) (?F3 Bool) (?G3 Bool) (?H3 Bool) (?I3 Bool) (?J3 Bool) (?K3 Bool) (?L3 Bool) (?M3 Bool) (?N3 Bool) (?O3 Bool) (?P3 Bool) (?Q3 Bool) (?R3 Bool) (?S3 Bool) (?T3 Bool) (?U3 Bool) (?V3 Bool) (?W3 Bool) (?X3 Bool) (?Y3 Bool) (?Z3 Bool) (?A4 Bool) (?B4 Bool) (?C4 Bool) (?D4 Bool) (?E4 Bool) (?F4 Bool) (?G4 Bool) (?H4 Bool) (?I4 Bool) (?J4 Bool) (?K4 Bool) (?L4 Bool) (?M4 Bool) (?N4 Bool) (?O4 Real) (?P4 Real) (?Q4 Real) (?R4 Real) (?S4 Real) (?T4 Real) (?U4 Real) (?V4 Real) (?W4 Real) (?X4 Real) (?Y4 Real) (?Z4 Real) )(let (($x539840 (|cp-rel-bb.i| ?T ?U ?V ?W ?X ?Y ?Z ?A1 ?B1 ?C1 ?D1 ?E1 ?F1 ?G1 ?H1 ?I1 ?J1 ?K1 ?L1)))
(let (($x252828 (not ?X1)))
(let (($x305434 (or $x252828 ?Y1)))
(let (($x44916 (not ?B3)))
(let (($x255027 (or $x44916 ?C3)))
(let (($x687169 (>= ?L1 ?S)))
(let (($x880472 (<= ?L1 ?S)))
(let (($x182051 (>= ?J1 ?Q)))
(let (($x253700 (<= ?J1 ?Q)))
(let (($x243779 (>= ?H1 ?O)))
(let (($x412090 (<= ?H1 ?O)))
(let (($x845516 (>= ?G1 ?N)))
(let (($x356653 (<= ?G1 ?N)))
(let (($x511220 (>= ?F1 ?M)))
(let (($x843871 (<= ?F1 ?M)))
(let (($x366589 (>= ?D1 ?K)))
(let (($x576482 (<= ?D1 ?K)))
(let (($x568846 (>= ?C1 ?J)))
(let (($x352086 (<= ?C1 ?J)))
(let (($x45107 (>= ?B1 ?I)))
(let (($x738716 (<= ?B1 ?I)))
(let (($x539364 (>= ?A1 ?H)))
(let (($x323486 (<= ?A1 ?H)))
(let (($x915110 (>= ?Z ?G)))
(let (($x575925 (<= ?Z ?G)))
(let (($x237229 (>= ?Y ?F)))
(let (($x50332 (<= ?Y ?F)))
(let (($x539298 (>= ?X ?E)))
(let (($x874469 (<= ?X ?E)))
(let (($x363738 (>= ?W ?D)))
(let (($x182616 (<= ?W ?D)))
(let (($x338402 (>= ?V ?C)))
(let (($x649420 (<= ?V ?C)))
(let (($x909523 (>= ?U ?B)))
(let (($x858733 (<= ?U ?B)))
(let (($x773596 (>= ?T ?O4)))
(let (($x193247 (<= ?T ?O4)))
(let (($x228634 (and ?X1 $x193247 $x773596 $x858733 $x909523 $x649420 $x338402 $x182616 $x363738 $x874469 $x539298 $x50332 $x237229 $x575925 $x915110 $x323486 $x539364 $x738716 $x45107 $x352086 $x568846 $x576482 $x366589 (<= ?E1 1.0) (>= ?E1 1.0) $x843871 $x511220 $x356653 $x845516 $x412090 $x243779 (<= ?I1 2.0) (>= ?I1 2.0) $x253700 $x182051 (<= ?K1 456.0) (>= ?K1 456.0) $x880472 $x687169)))
(let (($x588918 (>= ?K1 ?R)))
(let (($x690625 (<= ?K1 ?R)))
(let (($x539058 (>= ?I1 ?P)))
(let (($x627965 (<= ?I1 ?P)))
(let (($x360319 (>= ?E1 ?L)))
(let (($x501315 (<= ?E1 ?L)))
(let (($x142143 (not ?E2)))
(let (($x437595 (and ?Z1 $x142143 $x193247 $x773596 $x858733 $x909523 $x649420 $x338402 $x182616 $x363738 $x874469 $x539298 $x50332 $x237229 $x575925 $x915110 $x323486 $x539364 $x738716 $x45107 $x352086 $x568846 (<= ?D1 1.0) (>= ?D1 1.0) $x501315 $x360319 (<= ?F1 1.0) (>= ?F1 1.0) $x356653 $x845516 $x412090 $x243779 $x627965 $x539058 $x253700 $x182051 $x690625 $x588918 $x880472 $x687169)))
(let (($x520732 (not ?L2)))
(let (($x574156 (and ?G2 $x520732 $x193247 $x773596 $x858733 $x909523 $x649420 $x338402 $x182616 $x363738 $x874469 $x539298 $x50332 $x237229 $x575925 $x915110 $x323486 $x539364 $x738716 $x45107 (<= ?C1 1.0) (>= ?C1 1.0) $x576482 $x366589 $x501315 $x360319 $x843871 $x511220 $x356653 $x845516 (<= ?H1 0.0) (>= ?H1 0.0) $x627965 $x539058 $x253700 $x182051 $x690625 $x588918 $x880472 $x687169)))
(let (($x537460 (not ?S2)))
(let (($x314436 (and ?N2 $x537460 $x193247 $x773596 $x858733 $x909523 $x649420 $x338402 $x182616 $x363738 $x874469 $x539298 $x50332 $x237229 $x575925 $x915110 $x323486 $x539364 (<= ?B1 1.0) (>= ?B1 1.0) $x352086 $x568846 $x576482 $x366589 $x501315 $x360319 $x843871 $x511220 $x356653 $x845516 $x412090 $x243779 $x627965 $x539058 (<= ?J1 1.0) (>= ?J1 1.0) $x690625 $x588918 (<= ?L1 123.0) (>= ?L1 123.0))))
(let (($x413603 (and ?U2 (not ?Z2) $x193247 $x773596 $x858733 $x909523 $x649420 $x338402 $x182616 $x363738 $x874469 $x539298 $x50332 $x237229 $x575925 $x915110 (<= ?A1 1.0) (>= ?A1 1.0) $x738716 $x45107 $x352086 $x568846 $x576482 $x366589 $x501315 $x360319 $x843871 $x511220 $x356653 $x845516 $x412090 $x243779 $x627965 $x539058 $x253700 $x182051 $x690625 $x588918 $x880472 $x687169)))
(let (($x243143 (and ?B3 (not ?G3) $x193247 $x773596 $x858733 $x909523 $x649420 $x338402 $x182616 $x363738 $x874469 $x539298 $x50332 $x237229 (<= ?Z 1.0) (>= ?Z 1.0) $x323486 $x539364 $x738716 $x45107 $x352086 $x568846 $x576482 $x366589 $x501315 $x360319 $x843871 $x511220 $x356653 $x845516 $x412090 $x243779 $x627965 $x539058 $x253700 $x182051 $x690625 $x588918 $x880472 $x687169)))
(let (($x637868 (not ?N3)))
(let (($x577798 (and ?I3 $x637868 $x193247 $x773596 $x858733 $x909523 $x649420 $x338402 $x182616 $x363738 $x874469 $x539298 (<= ?Y 1.0) (>= ?Y 1.0) $x575925 $x915110 $x323486 $x539364 $x738716 $x45107 $x352086 $x568846 $x576482 $x366589 $x501315 $x360319 $x843871 $x511220 $x356653 $x845516 (<= ?H1 666.0) (>= ?H1 666.0) $x627965 $x539058 $x253700 $x182051 $x690625 $x588918 $x880472 $x687169)))
(let (($x869242 (not ?U3)))
(let (($x577323 (and ?P3 $x869242 $x193247 $x773596 $x858733 $x909523 $x649420 $x338402 $x182616 $x363738 (<= ?X 1.0) (>= ?X 1.0) $x50332 $x237229 $x575925 $x915110 $x323486 $x539364 $x738716 $x45107 $x352086 $x568846 $x576482 $x366589 $x501315 $x360319 $x843871 $x511220 $x356653 $x845516 $x412090 $x243779 $x627965 $x539058 $x253700 $x182051 $x690625 $x588918 $x880472 $x687169)))
(let (($x475828 (and ?W3 (not ?B4) $x193247 $x773596 $x858733 $x909523 $x649420 $x338402 (<= ?W 1.0) (>= ?W 1.0) $x874469 $x539298 $x50332 $x237229 $x575925 $x915110 $x323486 $x539364 $x738716 $x45107 $x352086 $x568846 $x576482 $x366589 $x501315 $x360319 $x843871 $x511220 $x356653 $x845516 $x412090 $x243779 $x627965 $x539058 $x253700 $x182051 $x690625 $x588918 $x880472 $x687169)))
(let (($x364789 (and ?D4 (not ?I4) $x193247 $x773596 $x858733 $x909523 (<= ?V 1.0) (>= ?V 1.0) $x182616 $x363738 $x874469 $x539298 $x50332 $x237229 $x575925 $x915110 $x323486 $x539364 $x738716 $x45107 $x352086 $x568846 $x576482 $x366589 $x501315 $x360319 $x843871 $x511220 (<= ?G1 777.0) (>= ?G1 777.0) $x412090 $x243779 $x627965 $x539058 $x253700 $x182051 $x690625 $x588918 $x880472 $x687169)))
(let (($x316813 (and ?K4 (not ?N4) $x193247 $x773596 (<= ?U 1.0) (>= ?U 1.0) $x649420 $x338402 $x182616 $x363738 $x874469 $x539298 $x50332 $x237229 $x575925 $x915110 $x323486 $x539364 $x738716 $x45107 $x352086 $x568846 $x576482 $x366589 $x501315 $x360319 $x843871 $x511220 $x356653 $x845516 $x412090 $x243779 $x627965 $x539058 $x253700 $x182051 $x690625 $x588918 $x880472 $x687169)))
(let (($x396178 (|cp-rel-bb.i| ?A ?B ?C ?D ?E ?F ?G ?H ?I ?J ?K ?L ?M ?N ?O ?P ?Q ?R ?S)))
(let (($x260379 (and $x396178 (= ?M4 (= ?B 0.0)) (= ?I4 (= ?Y4 0.0)) (= ?F4 (= ?C 0.0)) (= ?B4 (= ?X4 0.0)) (= ?Y3 (= ?D 0.0)) (= ?U3 (= ?W4 0.0)) (= ?R3 (= ?E 0.0)) (= ?N3 (= ?V4 0.0)) (= ?K3 (= ?F 0.0)) (= ?G3 (= ?U4 0.0)) (= ?D3 (= ?G 0.0)) (= ?Z2 (= ?T4 0.0)) (= ?W2 (= ?H 0.0)) (= ?S2 (= ?S4 0.0)) (= ?P2 (= ?I 0.0)) (= ?L2 (= ?R4 0.0)) (= ?I2 (= ?J 0.0)) (= ?E2 (= ?Q4 0.0)) (= ?B2 (= ?K 0.0)) (= ?V1 (= ?P4 0.0)) (= ?S1 (= ?L 0.0)) (= ?O4 (+ 1.0 ?A)) (= ?P1 (not (<= ?A 3.0))) (or $x316813 $x364789 $x475828 $x577323 $x577798 $x243143 $x413603 $x314436 $x574156 $x437595 $x228634) (or (not ?K4) ?L4) (or (not ?K4) (and ?G4 ?L4 ?M4)) (or (not ?G4) (and ?H4 (not ?J4)) (and ?J4 (not ?H4))) (or (not ?G4) (and ?D4 ?H4 ?I4) (and ?Z3 ?J4 (not ?F4))) (or (not ?D4) ?E4) (or (not ?D4) (and ?Z3 ?E4 ?F4)) (or (not ?Z3) (and ?A4 (not ?C4)) (and ?C4 (not ?A4))) (or (not ?Z3) (and ?W3 ?A4 ?B4) (and ?S3 ?C4 (not ?Y3))) (or (not ?W3) ?X3) (or (not ?W3) (and ?S3 ?X3 ?Y3)) (or (not ?S3) (and ?T3 (not ?V3)) (and ?V3 (not ?T3))) (or (not ?S3) (and ?P3 ?T3 ?U3) (and ?L3 ?V3 (not ?R3))) (or (not ?P3) ?Q3) (or (not ?P3) (and ?L3 ?Q3 ?R3)) (or (not ?L3) (and ?M3 (not ?O3)) (and ?O3 (not ?M3))) (or (not ?L3) (and ?I3 ?M3 ?N3) (and ?E3 ?O3 (not ?K3))) (or (not ?I3) ?J3) (or (not ?I3) (and ?E3 ?J3 ?K3)) (or (not ?E3) (and ?F3 (not ?H3)) (and ?H3 (not ?F3))) (or (not ?E3) (and ?B3 ?F3 ?G3) (and ?X2 ?H3 (not ?D3))) $x255027 (or $x44916 (and ?X2 ?C3 ?D3)) (or (not ?X2) (and ?Y2 (not ?A3)) (and ?A3 (not ?Y2))) (or (not ?X2) (and ?U2 ?Y2 ?Z2) (and ?Q2 ?A3 (not ?W2))) (or (not ?U2) ?V2) (or (not ?U2) (and ?Q2 ?V2 ?W2)) (or (not ?Q2) (and ?R2 (not ?T2)) (and ?T2 (not ?R2))) (or (not ?Q2) (and ?N2 ?R2 ?S2) (and ?J2 ?T2 (not ?P2))) (or (not ?N2) ?O2) (or (not ?N2) (and ?J2 ?O2 ?P2)) (or (not ?J2) (and ?K2 (not ?M2)) (and ?M2 (not ?K2))) (or (not ?J2) (and ?G2 ?K2 ?L2) (and ?C2 ?M2 (not ?I2))) (or (not ?G2) ?H2) (or (not ?G2) (and ?C2 ?H2 ?I2)) (or (not ?C2) (and ?D2 (not ?F2)) (and ?F2 (not ?D2))) (or (not ?C2) (and ?Z1 ?D2 ?E2) (and ?T1 ?F2 (not ?B2))) (or (not ?Z1) ?A2) (or (not ?Z1) (and ?T1 ?A2 ?B2)) $x305434 (or $x252828 (and ?Q1 ?Y1 (not ?V1))) (or (not ?T1) (and ?U1 (not ?W1)) (and ?W1 (not ?U1))) (or (not ?T1) (and ?Q1 ?U1 ?V1) (and ?M1 ?W1 (not ?S1))) (or (not ?Q1) ?R1) (or (not ?Q1) (and ?M1 ?R1 ?S1)) (or (not ?M1) ?O1) (or (not ?M1) (and ?N1 ?O1 (not ?P1))) (= ?N4 (= ?Z4 0.0)))))
(=> $x260379 $x539840)))))))))))))))))))))))))))))))))))))))))))))))))))))))))))))))
)
(assert (forall ((?A Real) (?B Real) (?C Real) (?D Real) (?E Real) (?F Real) (?G Real) (?H Real) (?I Real) (?J Real) (?K Real) (?L Real) (?M Real) (?N Real) (?O Real) (?P Real) (?Q Real) (?R Real) (?S Real) (?T Bool) (?U Bool) (?V Bool) (?W Bool) (?X Bool) (?Y Bool) (?Z Bool) (?A1 Bool) (?B1 Bool) (?C1 Bool) (?D1 Bool) (?E1 Bool) (?F1 Bool) (?G1 Bool) (?H1 Bool) (?I1 Bool) (?J1 Bool) (?K1 Bool) (?L1 Bool) (?M1 Bool) (?N1 Bool) (?O1 Bool) (?P1 Bool) (?Q1 Bool) (?R1 Bool) (?S1 Bool) (?T1 Bool) (?U1 Bool) (?V1 Bool) (?W1 Bool) (?X1 Bool) (?Y1 Bool) (?Z1 Bool) (?A2 Bool) (?B2 Bool) (?C2 Bool) (?D2 Bool) (?E2 Bool) (?F2 Bool) (?G2 Bool) (?H2 Bool) (?I2 Bool) (?J2 Bool) (?K2 Bool) (?L2 Bool) (?M2 Bool) (?N2 Bool) (?O2 Bool) (?P2 Bool) (?Q2 Bool) (?R2 Bool) (?S2 Bool) (?T2 Bool) (?U2 Bool) (?V2 Bool) (?W2 Bool) (?X2 Bool) (?Y2 Bool) (?Z2 Bool) (?A3 Bool) (?B3 Bool) (?C3 Bool) (?D3 Bool) (?E3 Bool) (?F3 Bool) (?G3 Bool) (?H3 Bool) (?I3 Bool) (?J3 Bool) (?K3 Bool) (?L3 Bool) (?M3 Bool) (?N3 Bool) (?O3 Bool) (?P3 Bool) (?Q3 Bool) (?R3 Bool) (?S3 Bool) (?T3 Real) (?U3 Real) (?V3 Real) (?W3 Real) (?X3 Real) (?Y3 Real) (?Z3 Real) (?A4 Real) (?B4 Real) (?C4 Real) (?D4 Real) (?E4 Real) (?F4 Bool) (?G4 Real) (?H4 Bool) (?I4 Real) (?J4 Bool) (?K4 Real) (?L4 Real) (?M4 Real) (?N4 Bool) (?O4 Bool) (?P4 Bool) (?Q4 Bool) (?R4 Bool) (?S4 Bool) (?T4 Bool) (?U4 Bool) (?V4 Bool) (?W4 Bool) (?X4 Bool) (?Y4 Real) (?Z4 Real) (?A5 Bool) (?B5 Bool) (?C5 Real) (?D5 Real) (?E5 Bool) (?F5 Bool) (?G5 Bool) (?H5 Bool) (?I5 Bool) (?J5 Bool) (?K5 Bool) (?L5 Bool) (?M5 Real) (?N5 Real) (?O5 Bool) (?P5 Bool) (?Q5 Bool) (?R5 Bool) (?S5 Bool) (?T5 Bool) (?U5 Bool) (?V5 Bool) (?W5 Bool) (?X5 Bool) (?Y5 Bool) (?Z5 Bool) (?A6 Bool) (?B6 Bool) (?C6 Bool) (?D6 Bool) (?E6 Bool) (?F6 Bool) (?G6 Real) (?H6 Bool) (?I6 Real) (?J6 Bool) (?K6 Bool) (?L6 Bool) (?M6 Bool) (?N6 Bool) (?O6 Bool) (?P6 Bool) (?Q6 Bool) (?R6 Bool) (?S6 Real) (?T6 Bool) (?U6 Bool) (?V6 Bool) (?W6 Bool) (?X6 Bool) (?Y6 Bool) (?Z6 Bool) (?A7 Bool) (?B7 Bool) (?C7 Real) (?D7 Bool) (?E7 Bool) (?F7 Bool) (?G7 Bool) (?H7 Bool) (?I7 Real) (?J7 Bool) (?K7 Bool) (?L7 Real) (?M7 Bool) (?N7 Bool) (?O7 Bool) (?P7 Real) (?Q7 Bool) (?R7 Bool) (?S7 Bool) (?T7 Bool) (?U7 Bool) (?V7 Bool) (?W7 Bool) (?X7 Bool) (?Y7 Bool) (?Z7 Bool) )(let (($x537522 (|cp-rel-__UFO__0| ?A ?B ?C ?D ?E ?F ?G ?H ?I ?J ?K ?L ?M ?N ?O ?P ?Q ?R ?S ?F4 ?G4 ?H4 ?I4 ?J4 ?K4 ?L4 ?M4)))
(let (($x625812 (or (not ?N4) (and ?P3 ?O4 ?S3) (and ?L3 ?P4 (not ?R3)) (and ?U ?Q4 ?W))))
(let (($x585334 (or (not ?N4) (and ?O4 (not ?P4) (not ?Q4)) (and ?P4 (not ?O4) (not ?Q4)) (and ?Q4 (not ?O4) (not ?P4)))))
(let (($x488701 (not ?U4)))
(let (($x437521 (or $x488701 ?V4)))
(let (($x412716 (and ?U4 ?A5 ?B5 (<= ?Y4 ?C5) (>= ?Y4 ?C5) (<= ?Z4 ?D5) (>= ?Z4 ?D5))))
(let (($x622350 (and ?R4 ?X4 ?H4 (<= ?Y4 ?I4) (>= ?Y4 ?I4) (<= ?Z4 ?G4) (>= ?Z4 ?G4))))
(let (($x189453 (not ?W4)))
(let (($x868159 (not ?H5)))
(let (($x926213 (or $x868159 ?I5)))
(let (($x690128 (and ?U4 ?Q5 (not ?B5) (<= ?M5 ?I4) (>= ?M5 ?I4) (<= ?N5 ?G4) (>= ?N5 ?G4))))
(let (($x77119 (and ?R4 ?P5 (not ?H4) (<= ?M5 ?I4) (>= ?M5 ?I4) (<= ?N5 ?G4) (>= ?N5 ?G4))))
(let (($x593377 (and ?W4 ?O5 ?G5 (<= ?M5 ?Y4) (>= ?M5 ?Y4) (<= ?N5 ?Z4) (>= ?N5 ?Z4))))
(let (($x198727 (not ?J5)))
(let (($x924516 (and ?E5 ?L5 $x198727 (<= ?M5 ?Y4) (>= ?M5 ?Y4) (<= ?N5 ?Z4) (>= ?N5 ?Z4))))
(let (($x111753 (not ?K5)))
(let (($x853609 (or $x111753 (and ?L5 (not ?O5) (not ?P5) (not ?Q5)) (and ?O5 (not ?L5) (not ?P5) (not ?Q5)) (and ?P5 (not ?L5) (not ?O5) (not ?Q5)) (and ?Q5 (not ?L5) (not ?O5) (not ?P5)))))
(let (($x637088 (and ?K5 ?U5 (<= ?K4 ?M5) (>= ?K4 ?M5) (<= ?L4 ?N5) (>= ?L4 ?N5) (<= ?M4 0.0) (>= ?M4 0.0))))
(let (($x236820 (not ?T5)))
(let (($x520954 (and ?H5 ?S5 $x236820 (<= ?K4 ?Y4) (>= ?K4 ?Y4) (<= ?L4 ?Z4) (>= ?L4 ?Z4) (<= ?M4 1.0) (>= ?M4 1.0))))
(let (($x197925 (not ?R5)))
(let (($x85260 (not ?Y5)))
(let (($x188786 (or $x85260 ?Z5)))
(let (($x44916 (not ?B6)))
(let (($x868310 (or $x44916 (and ?Y5 ?C6 (not ?D6)))))
(let (($x255027 (or $x44916 ?C6)))
(let (($x821879 (not ?E6)))
(let (($x568573 (or $x821879 (and ?B6 ?F6 (<= ?G6 0.0) (>= ?G6 0.0)) (and ?Y5 ?H6 ?D6 (<= ?G6 ?I6) (>= ?G6 ?I6)) (and ?V5 ?J6 ?A6 (<= ?G6 ?I6) (>= ?G6 ?I6)))))
(let (($x518922 (or $x821879 (and ?F6 (not ?H6) (not ?J6)) (and ?H6 (not ?F6) (not ?J6)) (and ?J6 (not ?F6) (not ?H6)))))
(let (($x637868 (not ?N6)))
(let (($x152618 (or $x637868 ?O6)))
(let (($x868220 (not ?Q6)))
(let (($x692339 (or $x868220 (and ?N6 ?R6 (<= ?S6 1.0) (>= ?S6 1.0)) (and ?K6 ?T6 ?P6 (<= ?S6 ?M4) (>= ?S6 ?M4)) (and ?E6 ?U6 ?M6 (<= ?S6 ?M4) (>= ?S6 ?M4)))))
(let (($x67784 (or $x868220 (and ?R6 (not ?T6) (not ?U6)) (and ?T6 (not ?R6) (not ?U6)) (and ?U6 (not ?R6) (not ?T6)))))
(let (($x334015 (= ?G7 (not ?F7))))
(let (($x423277 (= ?O7 (or ?N7 ?M7))))
(let (($x739815 (= ?Q7 (= ?P7 0.0))))
(let (($x111805 (= ?U7 (not ?T7))))
(let (($x307643 (= ?W7 (= ?L7 0.0))))
(let (($x420012 (= ?Y7 (or ?X7 ?W7))))
(let (($x841106 (|cp-rel-bb.i| ?A ?B ?C ?D ?E ?F ?G ?H ?I ?J ?K ?L ?M ?N ?O ?P ?Q ?R ?S)))
(let (($x875231 (and $x841106 (= ?Z7 (not (= ?P 2.0))) (= ?X6 (= ?S6 0.0)) (= ?P6 (or ?Y7 ?V7)) $x420012 (= ?X7 (not (= ?R ?L7))) $x307643 (= ?M6 (or ?V7 ?U7)) (= ?V7 (= ?R 0.0)) $x111805 (= ?T7 (and ?S7 ?F4)) (= ?S7 (= ?G6 0.0)) (= ?D6 (or ?R7 ?Q7)) (= ?R7 (not (= ?N ?P7))) $x739815 (= ?A6 (= ?I6 0.0)) (= ?I6 (ite ?O7 ?K4 1.0)) (= ?P7 (ite ?O7 ?L4 ?S)) $x423277 (= ?N7 (= ?S 0.0)) (= ?M7 (not (= ?Q 1.0))) (= ?L7 (ite ?J4 ?N ?O)) (= ?X5 (= ?M 0.0)) (= ?T5 (or ?J7 ?K7)) (= ?K7 (not (= ?Q 1.0))) (= ?J7 (= ?S 0.0)) (= ?J5 (= ?I7 ?N)) (= ?G5 (= ?I7 0.0)) (= ?I7 (ite ?H7 ?S 0.0)) (= ?H7 (= ?Q 1.0)) (= ?D5 (ite ?F7 ?G4 0.0)) (= ?C5 (ite ?F7 ?I4 0.0)) (= ?B5 (or ?H4 ?G7)) $x334015 (= ?F7 (or ?E7 ?H4)) (= ?E7 (or ?D7 ?J4)) (= ?D7 (not (= ?O ?G4))) (= ?T4 (or ?H4 ?J4)) (= ?J4 (= ?O 0.0)) (= ?C7 (ite ?H4 1.0 0.0)) (= ?H4 (= ?G4 0.0)) (= ?G4 (ite ?F4 ?R 0.0)) (= ?F4 (= ?P 2.0)) (= ?S3 (= ?E4 0.0)) (= ?R3 (= ?B 0.0)) (= ?N3 (= ?D4 0.0)) (= ?K3 (= ?C 0.0)) (= ?G3 (= ?C4 0.0)) (= ?D3 (= ?D 0.0)) (= ?Z2 (= ?B4 0.0)) (= ?W2 (= ?E 0.0)) (= ?S2 (= ?A4 0.0)) (= ?P2 (= ?F 0.0)) (= ?L2 (= ?Z3 0.0)) (= ?I2 (= ?G 0.0)) (= ?E2 (= ?Y3 0.0)) (= ?B2 (= ?H 0.0)) (= ?X1 (= ?X3 0.0)) (= ?U1 (= ?I 0.0)) (= ?Q1 (= ?W3 0.0)) (= ?N1 (= ?J 0.0)) (= ?J1 (= ?V3 0.0)) (= ?G1 (= ?K 0.0)) (= ?C1 (= ?U3 0.0)) (= ?Z (= ?L 0.0)) (= ?T3 (+ 1.0 ?A)) (= ?W (not (<= ?A 3.0))) (or ?Y6 (and ?R5 ?X5)) (or (not ?Y6) (and ?Z6 (not ?B7)) (and ?B7 (not ?Z6))) (or (not ?Y6) (and ?V6 ?Z6 (not ?A7)) (and ?Q6 ?B7 ?X6)) (or (not ?V6) ?W6) (or (not ?V6) (and ?Q6 ?W6 (not ?X6))) $x67784 $x692339 $x152618 (or $x637868 (and ?K6 ?O6 (not ?P6))) (or (not ?K6) ?L6) (or (not ?K6) (and ?E6 ?L6 (not ?M6))) $x518922 $x568573 $x255027 $x868310 $x188786 (or $x85260 (and ?V5 ?Z5 (not ?A6))) (or (not ?V5) ?W5) (or (not ?V5) (and ?R5 ?W5 (not ?X5))) (or $x197925 (and ?S5 (not ?U5)) (and ?U5 (not ?S5))) (or $x197925 $x520954 $x637088) $x853609 (or $x111753 $x924516 $x593377 $x77119 $x690128) $x926213 (or $x868159 (and ?E5 ?I5 ?J5)) (or (not ?E5) ?F5) (or (not ?E5) (and ?W4 ?F5 (not ?G5))) (or $x189453 (and ?X4 (not ?A5)) (and ?A5 (not ?X4))) (or $x189453 $x622350 $x412716) $x437521 (or $x488701 (and ?N4 ?V4 (not ?T4))) (or (not ?R4) ?S4) (or (not ?R4) (and ?N4 ?S4 ?T4)) $x585334 $x625812 (or (not ?P3) ?Q3) (or (not ?P3) (and ?L3 ?Q3 ?R3)) (or (not ?L3) (and ?M3 (not ?O3)) (and ?O3 (not ?M3))) (or (not ?L3) (and ?I3 ?M3 ?N3) (and ?E3 ?O3 (not ?K3))) (or (not ?I3) ?J3) (or (not ?I3) (and ?E3 ?J3 ?K3)) (or (not ?E3) (and ?F3 (not ?H3)) (and ?H3 (not ?F3))) (or (not ?E3) (and ?B3 ?F3 ?G3) (and ?X2 ?H3 (not ?D3))) (or (not ?B3) ?C3) (or (not ?B3) (and ?X2 ?C3 ?D3)) (or (not ?X2) (and ?Y2 (not ?A3)) (and ?A3 (not ?Y2))) (or (not ?X2) (and ?U2 ?Y2 ?Z2) (and ?Q2 ?A3 (not ?W2))) (or (not ?U2) ?V2) (or (not ?U2) (and ?Q2 ?V2 ?W2)) (or (not ?Q2) (and ?R2 (not ?T2)) (and ?T2 (not ?R2))) (or (not ?Q2) (and ?N2 ?R2 ?S2) (and ?J2 ?T2 (not ?P2))) (or (not ?N2) ?O2) (or (not ?N2) (and ?J2 ?O2 ?P2)) (or (not ?J2) (and ?K2 (not ?M2)) (and ?M2 (not ?K2))) (or (not ?J2) (and ?G2 ?K2 ?L2) (and ?C2 ?M2 (not ?I2))) (or (not ?G2) ?H2) (or (not ?G2) (and ?C2 ?H2 ?I2)) (or (not ?C2) (and ?D2 (not ?F2)) (and ?F2 (not ?D2))) (or (not ?C2) (and ?Z1 ?D2 ?E2) (and ?V1 ?F2 (not ?B2))) (or (not ?Z1) ?A2) (or (not ?Z1) (and ?V1 ?A2 ?B2)) (or (not ?V1) (and ?W1 (not ?Y1)) (and ?Y1 (not ?W1))) (or (not ?V1) (and ?S1 ?W1 ?X1) (and ?O1 ?Y1 (not ?U1))) (or (not ?S1) ?T1) (or (not ?S1) (and ?O1 ?T1 ?U1)) (or (not ?O1) (and ?P1 (not ?R1)) (and ?R1 (not ?P1))) (or (not ?O1) (and ?L1 ?P1 ?Q1) (and ?H1 ?R1 (not ?N1))) (or (not ?L1) ?M1) (or (not ?L1) (and ?H1 ?M1 ?N1)) (or (not ?H1) (and ?I1 (not ?K1)) (and ?K1 (not ?I1))) (or (not ?H1) (and ?E1 ?I1 ?J1) (and ?A1 ?K1 (not ?G1))) (or (not ?E1) ?F1) (or (not ?E1) (and ?A1 ?F1 ?G1)) (or (not ?A1) (and ?B1 (not ?D1)) (and ?D1 (not ?B1))) (or (not ?A1) (and ?X ?B1 ?C1) (and ?T ?D1 (not ?Z))) (or (not ?X) ?Y) (or (not ?X) (and ?T ?Y ?Z)) (or (not ?T) ?V) (or (not ?T) (and ?U ?V (not ?W))) (= ?A7 (or ?V7 ?Z7)))))
(=> $x875231 $x537522))))))))))))))))))))))))))))))))))))))))))))
)
(assert (forall ((?A Bool) (?B Real) (?C Bool) (?D Real) (?E Bool) (?F Real) (?G Real) (?H Real) (?I Real) (?J Real) (?K Real) (?L Real) (?M Real) (?N Real) (?O Real) (?P Real) (?Q Real) (?R Real) (?S Real) (?T Real) (?U Real) (?V Real) (?W Real) (?X Real) (?Y Real) (?Z Real) (?A1 Real) (?B1 Bool) )(let (($x303817 (|cp-rel-__UFO__0| ?I ?J ?K ?L ?M ?N ?O ?P ?Q ?R ?S ?T ?U ?V ?W ?X ?Y ?Z ?A1 ?A ?B ?C ?D ?E ?F ?G ?H)))
(=> (and $x303817 (= ?B1 true)) $x303817)))
)
(assert (forall ((?A Real) (?B Real) (?C Real) (?D Real) (?E Real) (?F Real) (?G Real) (?H Real) (?I Real) (?J Real) (?K Real) (?L Real) (?M Real) (?N Real) (?O Real) (?P Real) (?Q Real) (?R Real) (?S Real) (?T Bool) (?U Bool) (?V Bool) (?W Bool) (?X Bool) (?Y Bool) (?Z Bool) (?A1 Bool) (?B1 Bool) (?C1 Bool) (?D1 Bool) (?E1 Bool) (?F1 Bool) (?G1 Bool) (?H1 Bool) (?I1 Bool) (?J1 Bool) (?K1 Bool) (?L1 Bool) (?M1 Bool) (?N1 Bool) (?O1 Bool) (?P1 Bool) (?Q1 Bool) (?R1 Bool) (?S1 Bool) (?T1 Bool) (?U1 Bool) (?V1 Bool) (?W1 Bool) (?X1 Bool) (?Y1 Bool) (?Z1 Bool) (?A2 Bool) (?B2 Bool) (?C2 Bool) (?D2 Bool) (?E2 Bool) (?F2 Bool) (?G2 Bool) (?H2 Bool) (?I2 Bool) (?J2 Bool) (?K2 Bool) (?L2 Bool) (?M2 Bool) (?N2 Bool) (?O2 Bool) (?P2 Bool) (?Q2 Bool) (?R2 Bool) (?S2 Bool) (?T2 Bool) (?U2 Bool) (?V2 Bool) (?W2 Bool) (?X2 Bool) (?Y2 Bool) (?Z2 Bool) (?A3 Bool) (?B3 Bool) (?C3 Bool) (?D3 Bool) (?E3 Bool) (?F3 Bool) (?G3 Bool) (?H3 Bool) (?I3 Bool) (?J3 Bool) (?K3 Bool) (?L3 Bool) (?M3 Bool) (?N3 Bool) (?O3 Bool) (?P3 Bool) (?Q3 Bool) (?R3 Bool) (?S3 Bool) (?T3 Real) (?U3 Real) (?V3 Real) (?W3 Real) (?X3 Real) (?Y3 Real) (?Z3 Real) (?A4 Real) (?B4 Real) (?C4 Real) (?D4 Real) (?E4 Real) (?F4 Bool) (?G4 Real) (?H4 Bool) (?I4 Real) (?J4 Bool) (?K4 Real) (?L4 Real) (?M4 Real) (?N4 Bool) (?O4 Bool) (?P4 Bool) (?Q4 Bool) (?R4 Bool) (?S4 Bool) (?T4 Bool) (?U4 Bool) (?V4 Bool) (?W4 Bool) (?X4 Bool) (?Y4 Real) (?Z4 Real) (?A5 Bool) (?B5 Bool) (?C5 Real) (?D5 Real) (?E5 Bool) (?F5 Bool) (?G5 Bool) (?H5 Bool) (?I5 Bool) (?J5 Bool) (?K5 Bool) (?L5 Bool) (?M5 Real) (?N5 Real) (?O5 Bool) (?P5 Bool) (?Q5 Bool) (?R5 Bool) (?S5 Bool) (?T5 Bool) (?U5 Bool) (?V5 Bool) (?W5 Bool) (?X5 Bool) (?Y5 Bool) (?Z5 Bool) (?A6 Bool) (?B6 Bool) (?C6 Bool) (?D6 Bool) (?E6 Bool) (?F6 Bool) (?G6 Real) (?H6 Bool) (?I6 Real) (?J6 Bool) (?K6 Bool) (?L6 Bool) (?M6 Bool) (?N6 Bool) (?O6 Bool) (?P6 Bool) (?Q6 Bool) (?R6 Bool) (?S6 Real) (?T6 Bool) (?U6 Bool) (?V6 Bool) (?W6 Bool) (?X6 Bool) (?Y6 Bool) (?Z6 Real) (?A7 Bool) (?B7 Bool) (?C7 Bool) (?D7 Bool) (?E7 Bool) (?F7 Real) (?G7 Bool) (?H7 Bool) (?I7 Real) (?J7 Bool) (?K7 Bool) (?L7 Bool) (?M7 Real) (?N7 Bool) (?O7 Bool) (?P7 Bool) (?Q7 Bool) (?R7 Bool) (?S7 Bool) (?T7 Bool) (?U7 Bool) (?V7 Bool) (?W7 Bool) )(let (($x623407 (not ?N4)))
(let (($x855267 (or $x623407 (and ?P3 ?O4 ?S3) (and ?L3 ?P4 (not ?R3)) (and ?U ?Q4 ?W))))
(let (($x598345 (or $x623407 (and ?O4 (not ?P4) (not ?Q4)) (and ?P4 (not ?O4) (not ?Q4)) (and ?Q4 (not ?O4) (not ?P4)))))
(let (($x488701 (not ?R4)))
(let (($x437521 (or $x488701 ?S4)))
(let (($x252828 (not ?U4)))
(let (($x305434 (or $x252828 ?V4)))
(let (($x351887 (and ?U4 ?A5 ?B5 (<= ?Y4 ?C5) (>= ?Y4 ?C5) (<= ?Z4 ?D5) (>= ?Z4 ?D5))))
(let (($x515996 (and ?R4 ?X4 ?H4 (<= ?Y4 ?I4) (>= ?Y4 ?I4) (<= ?Z4 ?G4) (>= ?Z4 ?G4))))
(let (($x44151 (not ?W4)))
(let (($x868159 (not ?E5)))
(let (($x926213 (or $x868159 ?F5)))
(let (($x142143 (not ?B5)))
(let (($x417751 (and ?U4 ?Q5 $x142143 (<= ?M5 ?I4) (>= ?M5 ?I4) (<= ?N5 ?G4) (>= ?N5 ?G4))))
(let (($x532016 (and ?R4 ?P5 (not ?H4) (<= ?M5 ?I4) (>= ?M5 ?I4) (<= ?N5 ?G4) (>= ?N5 ?G4))))
(let (($x867703 (and ?W4 ?O5 ?G5 (<= ?M5 ?Y4) (>= ?M5 ?Y4) (<= ?N5 ?Z4) (>= ?N5 ?Z4))))
(let (($x227401 (and ?E5 ?L5 (not ?J5) (<= ?M5 ?Y4) (>= ?M5 ?Y4) (<= ?N5 ?Z4) (>= ?N5 ?Z4))))
(let (($x411832 (not ?K5)))
(let (($x413556 (or $x411832 (and ?L5 (not ?O5) (not ?P5) (not ?Q5)) (and ?O5 (not ?L5) (not ?P5) (not ?Q5)) (and ?P5 (not ?L5) (not ?O5) (not ?Q5)) (and ?Q5 (not ?L5) (not ?O5) (not ?P5)))))
(let (($x345120 (and ?K5 ?U5 (<= ?K4 ?M5) (>= ?K4 ?M5) (<= ?L4 ?N5) (>= ?L4 ?N5) (<= ?M4 0.0) (>= ?M4 0.0))))
(let (($x577193 (and ?H5 ?S5 (not ?T5) (<= ?K4 ?Y4) (>= ?K4 ?Y4) (<= ?L4 ?Z4) (>= ?L4 ?Z4) (<= ?M4 1.0) (>= ?M4 1.0))))
(let (($x925521 (not ?R5)))
(let (($x85260 (not ?V5)))
(let (($x188786 (or $x85260 ?W5)))
(let (($x44916 (not ?Y5)))
(let (($x868310 (or $x44916 (and ?V5 ?Z5 (not ?A6)))))
(let (($x255027 (or $x44916 ?Z5)))
(let (($x627946 (not ?E6)))
(let (($x895503 (or $x627946 (and ?B6 ?F6 (<= ?G6 0.0) (>= ?G6 0.0)) (and ?Y5 ?H6 ?D6 (<= ?G6 ?I6) (>= ?G6 ?I6)) (and ?V5 ?J6 ?A6 (<= ?G6 ?I6) (>= ?G6 ?I6)))))
(let (($x868019 (or $x627946 (and ?F6 (not ?H6) (not ?J6)) (and ?H6 (not ?F6) (not ?J6)) (and ?J6 (not ?F6) (not ?H6)))))
(let (($x637868 (not ?K6)))
(let (($x152618 (or $x637868 ?L6)))
(let (($x694859 (not ?Q6)))
(let (($x327962 (or $x694859 (and ?N6 ?R6 (<= ?S6 1.0) (>= ?S6 1.0)) (and ?K6 ?T6 ?P6 (<= ?S6 ?M4) (>= ?S6 ?M4)) (and ?E6 ?U6 ?M6 (<= ?S6 ?M4) (>= ?S6 ?M4)))))
(let (($x532209 (or $x694859 (and ?R6 (not ?T6) (not ?U6)) (and ?T6 (not ?R6) (not ?U6)) (and ?U6 (not ?R6) (not ?T6)))))
(let (($x334015 (= ?D7 (not ?C7))))
(let (($x423277 (= ?L7 (or ?K7 ?J7))))
(let (($x739815 (= ?N7 (= ?M7 0.0))))
(let (($x111805 (= ?R7 (not ?Q7))))
(let (($x307643 (= ?T7 (= ?I7 0.0))))
(let (($x420012 (= ?V7 (or ?U7 ?T7))))
(let (($x340254 (|cp-rel-bb.i| ?A ?B ?C ?D ?E ?F ?G ?H ?I ?J ?K ?L ?M ?N ?O ?P ?Q ?R ?S)))
(let (($x642245 (and $x340254 (= ?W7 (not (= ?P 2.0))) (= ?X6 (= ?S6 0.0)) (= ?P6 (or ?V7 ?S7)) $x420012 (= ?U7 (not (= ?R ?I7))) $x307643 (= ?M6 (or ?S7 ?R7)) (= ?S7 (= ?R 0.0)) $x111805 (= ?Q7 (and ?P7 ?F4)) (= ?P7 (= ?G6 0.0)) (= ?D6 (or ?O7 ?N7)) (= ?O7 (not (= ?N ?M7))) $x739815 (= ?A6 (= ?I6 0.0)) (= ?I6 (ite ?L7 ?K4 1.0)) (= ?M7 (ite ?L7 ?L4 ?S)) $x423277 (= ?K7 (= ?S 0.0)) (= ?J7 (not (= ?Q 1.0))) (= ?I7 (ite ?J4 ?N ?O)) (= ?X5 (= ?M 0.0)) (= ?T5 (or ?G7 ?H7)) (= ?H7 (not (= ?Q 1.0))) (= ?G7 (= ?S 0.0)) (= ?J5 (= ?F7 ?N)) (= ?G5 (= ?F7 0.0)) (= ?F7 (ite ?E7 ?S 0.0)) (= ?E7 (= ?Q 1.0)) (= ?D5 (ite ?C7 ?G4 0.0)) (= ?C5 (ite ?C7 ?I4 0.0)) (= ?B5 (or ?H4 ?D7)) $x334015 (= ?C7 (or ?B7 ?H4)) (= ?B7 (or ?A7 ?J4)) (= ?A7 (not (= ?O ?G4))) (= ?T4 (or ?H4 ?J4)) (= ?J4 (= ?O 0.0)) (= ?Z6 (ite ?H4 1.0 0.0)) (= ?H4 (= ?G4 0.0)) (= ?G4 (ite ?F4 ?R 0.0)) (= ?F4 (= ?P 2.0)) (= ?S3 (= ?E4 0.0)) (= ?R3 (= ?B 0.0)) (= ?N3 (= ?D4 0.0)) (= ?K3 (= ?C 0.0)) (= ?G3 (= ?C4 0.0)) (= ?D3 (= ?D 0.0)) (= ?Z2 (= ?B4 0.0)) (= ?W2 (= ?E 0.0)) (= ?S2 (= ?A4 0.0)) (= ?P2 (= ?F 0.0)) (= ?L2 (= ?Z3 0.0)) (= ?I2 (= ?G 0.0)) (= ?E2 (= ?Y3 0.0)) (= ?B2 (= ?H 0.0)) (= ?X1 (= ?X3 0.0)) (= ?U1 (= ?I 0.0)) (= ?Q1 (= ?W3 0.0)) (= ?N1 (= ?J 0.0)) (= ?J1 (= ?V3 0.0)) (= ?G1 (= ?K 0.0)) (= ?C1 (= ?U3 0.0)) (= ?Z (= ?L 0.0)) (= ?T3 (+ 1.0 ?A)) (= ?W (not (<= ?A 3.0))) (or (and ?V6 ?Y6) (and ?H5 ?T5)) (or (not ?V6) ?W6) (or (not ?V6) (and ?Q6 ?W6 (not ?X6))) $x532209 $x327962 (or (not ?N6) ?O6) (or (not ?N6) (and ?K6 ?O6 (not ?P6))) $x152618 (or $x637868 (and ?E6 ?L6 (not ?M6))) $x868019 $x895503 (or (not ?B6) ?C6) (or (not ?B6) (and ?Y5 ?C6 (not ?D6))) $x255027 $x868310 $x188786 (or $x85260 (and ?R5 ?W5 (not ?X5))) (or $x925521 (and ?S5 (not ?U5)) (and ?U5 (not ?S5))) (or $x925521 $x577193 $x345120) $x413556 (or $x411832 $x227401 $x867703 $x532016 $x417751) (or (not ?H5) ?I5) (or (not ?H5) (and ?E5 ?I5 ?J5)) $x926213 (or $x868159 (and ?W4 ?F5 (not ?G5))) (or $x44151 (and ?X4 (not ?A5)) (and ?A5 (not ?X4))) (or $x44151 $x515996 $x351887) $x305434 (or $x252828 (and ?N4 ?V4 (not ?T4))) $x437521 (or $x488701 (and ?N4 ?S4 ?T4)) $x598345 $x855267 (or (not ?P3) ?Q3) (or (not ?P3) (and ?L3 ?Q3 ?R3)) (or (not ?L3) (and ?M3 (not ?O3)) (and ?O3 (not ?M3))) (or (not ?L3) (and ?I3 ?M3 ?N3) (and ?E3 ?O3 (not ?K3))) (or (not ?I3) ?J3) (or (not ?I3) (and ?E3 ?J3 ?K3)) (or (not ?E3) (and ?F3 (not ?H3)) (and ?H3 (not ?F3))) (or (not ?E3) (and ?B3 ?F3 ?G3) (and ?X2 ?H3 (not ?D3))) (or (not ?B3) ?C3) (or (not ?B3) (and ?X2 ?C3 ?D3)) (or (not ?X2) (and ?Y2 (not ?A3)) (and ?A3 (not ?Y2))) (or (not ?X2) (and ?U2 ?Y2 ?Z2) (and ?Q2 ?A3 (not ?W2))) (or (not ?U2) ?V2) (or (not ?U2) (and ?Q2 ?V2 ?W2)) (or (not ?Q2) (and ?R2 (not ?T2)) (and ?T2 (not ?R2))) (or (not ?Q2) (and ?N2 ?R2 ?S2) (and ?J2 ?T2 (not ?P2))) (or (not ?N2) ?O2) (or (not ?N2) (and ?J2 ?O2 ?P2)) (or (not ?J2) (and ?K2 (not ?M2)) (and ?M2 (not ?K2))) (or (not ?J2) (and ?G2 ?K2 ?L2) (and ?C2 ?M2 (not ?I2))) (or (not ?G2) ?H2) (or (not ?G2) (and ?C2 ?H2 ?I2)) (or (not ?C2) (and ?D2 (not ?F2)) (and ?F2 (not ?D2))) (or (not ?C2) (and ?Z1 ?D2 ?E2) (and ?V1 ?F2 (not ?B2))) (or (not ?Z1) ?A2) (or (not ?Z1) (and ?V1 ?A2 ?B2)) (or (not ?V1) (and ?W1 (not ?Y1)) (and ?Y1 (not ?W1))) (or (not ?V1) (and ?S1 ?W1 ?X1) (and ?O1 ?Y1 (not ?U1))) (or (not ?S1) ?T1) (or (not ?S1) (and ?O1 ?T1 ?U1)) (or (not ?O1) (and ?P1 (not ?R1)) (and ?R1 (not ?P1))) (or (not ?O1) (and ?L1 ?P1 ?Q1) (and ?H1 ?R1 (not ?N1))) (or (not ?L1) ?M1) (or (not ?L1) (and ?H1 ?M1 ?N1)) (or (not ?H1) (and ?I1 (not ?K1)) (and ?K1 (not ?I1))) (or (not ?H1) (and ?E1 ?I1 ?J1) (and ?A1 ?K1 (not ?G1))) (or (not ?E1) ?F1) (or (not ?E1) (and ?A1 ?F1 ?G1)) (or (not ?A1) (and ?B1 (not ?D1)) (and ?D1 (not ?B1))) (or (not ?A1) (and ?X ?B1 ?C1) (and ?T ?D1 (not ?Z))) (or (not ?X) ?Y) (or (not ?X) (and ?T ?Y ?Z)) (or (not ?T) ?V) (or (not ?T) (and ?U ?V (not ?W))) (= ?Y6 (or ?S7 ?W7)))))
(=> $x642245 |cp-rel-UnifiedReturnBlock|)))))))))))))))))))))))))))))))))))))))))))))
)
(assert (not cp-rel-UnifiedReturnBlock))
(check-sat)
